NAME: kroA100
DIMENSION: 18
EDGE_WEIGHT_TYPE: EUC_2D
NODE_COORD_SECTION
1 1380 939
2 2848 96
3 3510 1671
4 457 334
5 3888 666
6 984 965
7 2721 1482
8 1286 525
9 2716 1432
10 738 1325
11 1251 1832
12 2728 1698
13 3815 169
14 3683 1533
15 1247 1945
16 123 862
17 1234 1946
18 252 1240
ACCEPTED_PROBABILITIES
0.0
0.75
0.95
0.75
0.95
0.5
0.75
0.5
0.75
0.75
0.75
0.75
0.95
0.95
0.75
0.75
0.75
0.75
OUTSOURCING_COSTS
0.0
99.59
132.47
64.94
148.41
23.35
85.12
25.0
83.76
44.06
53.06
91.0
150.24
139.88
59.71
74.06
59.88
68.65
